p cnf 658 1978
a 2 3 4 5 6 7 8 9 10 11 15 20 22 24 25 26 29 31 33 34 36 38 40 41 43 45 47 49 51 53 55 58 59 66 68 72 76 78 80 84 91 96 101 107 108 112 115 116 125 131 132 136 139 140 0
e 1 12 13 14 16 17 18 19 21 23 27 28 30 32 35 37 39 42 44 46 48 50 52 54 56 57 60 61 62 63 64 65 67 69 70 71 73 74 75 77 79 81 82 83 85 86 87 88 89 90 92 93 94 95 97 98 99 100 102 103 104 105 106 109 110 111 113 114 117 118 119 120 121 122 123 124 126 127 128 129 130 133 134 135 137 138 141 142 143 144 145 146 147 148 149 150 151 152 153 154 155 156 157 158 159 160 161 162 163 164 165 166 167 168 169 170 171 172 173 174 175 176 177 178 179 180 181 182 183 184 185 186 187 188 189 190 191 192 193 194 195 196 197 198 199 200 201 202 203 204 205 206 207 208 209 210 211 212 213 214 215 216 217 218 219 220 221 222 223 224 225 226 227 228 229 230 231 232 233 234 235 236 237 238 239 240 241 242 243 244 245 246 247 248 249 250 251 252 253 254 255 256 257 258 259 260 261 262 263 264 265 266 267 268 269 270 271 272 273 274 275 276 277 278 279 280 281 282 283 284 285 286 287 288 289 290 291 292 293 294 295 296 297 298 299 300 301 302 303 304 305 306 307 308 309 310 311 312 313 314 315 316 317 318 319 320 321 322 323 324 325 326 327 328 329 330 331 332 333 334 335 336 337 338 339 340 341 342 343 344 345 346 347 348 349 350 351 352 353 354 355 356 357 358 359 360 361 362 363 364 365 366 367 368 369 370 371 372 373 374 375 376 377 378 379 380 381 382 383 384 385 386 387 388 389 390 391 392 393 394 395 396 397 398 399 400 401 402 403 404 405 406 407 408 409 410 411 412 413 414 415 416 417 418 419 420 421 422 423 424 425 426 427 428 429 430 431 432 433 434 435 436 437 438 439 440 441 442 443 444 445 446 447 448 449 450 451 452 453 454 455 456 457 458 459 460 461 462 463 464 465 466 467 468 469 470 471 472 473 474 475 476 477 478 479 480 481 482 483 484 485 486 487 488 489 490 491 492 493 494 495 496 497 498 499 500 501 502 503 504 505 506 507 508 509 510 511 512 513 514 515 516 517 518 519 520 521 522 523 524 525 526 527 528 529 530 531 532 533 534 535 536 537 538 539 540 541 542 543 544 545 546 547 548 549 550 551 552 553 554 555 556 557 558 559 560 561 562 563 564 565 566 567 568 569 570 571 572 573 574 575 576 577 578 579 580 581 582 583 584 585 586 587 588 589 590 591 592 593 594 595 596 597 598 599 600 601 602 603 604 605 606 607 608 609 610 611 612 613 614 615 616 617 618 619 620 621 622 623 624 625 626 627 628 629 630 631 632 633 634 635 636 637 638 639 640 641 642 643 644 645 646 647 648 649 650 651 652 653 654 655 656 657 658 0
1 0
10 -12 0
11 -12 0
-10 -11 12 0
10 -13 0
-11 -13 0
-10 11 13 0
10 14 0
-12 14 0
-13 14 0
-10 12 13 -14 0
-15 16 0
15 16 0
9 -17 0
14 -17 0
16 -17 0
-9 -14 -16 17 0
-9 -18 0
14 -18 0
9 -14 18 0
-17 19 0
-18 19 0
17 18 -19 0
-20 21 0
20 21 0
-22 23 0
22 23 0
25 -27 0
-26 -27 0
-25 26 27 0
25 28 0
-27 28 0
-25 27 -28 0
-29 30 0
29 30 0
30 -32 0
31 -32 0
-30 -31 32 0
-34 35 0
34 35 0
35 -37 0
-36 -37 0
-35 36 37 0
35 -39 0
36 -39 0
38 -39 0
-35 -36 -38 39 0
35 -42 0
36 -42 0
-38 -42 0
40 -42 0
41 -42 0
-35 -36 38 -40 -41 42 0
35 -44 0
36 -44 0
-38 -44 0
40 -44 0
-41 -44 0
-43 -44 0
-35 -36 38 -40 41 43 44 0
35 -46 0
36 -46 0
-38 -46 0
-40 -46 0
-45 -46 0
-35 -36 38 40 45 46 0
35 -48 0
36 -48 0
-38 -48 0
-40 -48 0
45 -48 0
47 -48 0
-35 -36 38 40 -45 -47 48 0
35 -50 0
36 -50 0
-38 -50 0
40 -50 0
-41 -50 0
43 -50 0
49 -50 0
-35 -36 38 -40 41 -43 -49 50 0
35 -52 0
36 -52 0
-38 -52 0
40 -52 0
-41 -52 0
43 -52 0
-49 -52 0
51 -52 0
-35 -36 38 -40 41 -43 49 -51 52 0
-53 54 0
53 54 0
35 -56 0
36 -56 0
-38 -56 0
-40 -56 0
45 -56 0
-47 -56 0
54 -56 0
55 -56 0
-35 -36 38 40 -45 47 -54 -55 56 0
35 -57 0
36 -57 0
-38 -57 0
-40 -57 0
45 -57 0
-47 -57 0
54 -57 0
-55 -57 0
-35 -36 38 40 -45 47 -54 55 57 0
58 -60 0
59 -60 0
-58 -59 60 0
58 -61 0
-59 -61 0
-58 59 61 0
58 62 0
-60 62 0
-61 62 0
-58 60 61 -62 0
35 -63 0
36 -63 0
-38 -63 0
40 -63 0
-41 -63 0
43 -63 0
-49 -63 0
-51 -63 0
62 -63 0
-35 -36 38 -40 41 -43 49 51 -62 63 0
-37 64 0
-39 64 0
-42 64 0
-44 64 0
-46 64 0
-48 64 0
-50 64 0
-52 64 0
-56 64 0
-57 64 0
-63 64 0
37 39 42 44 46 48 50 52 56 57 63 -64 0
30 -65 0
-31 -65 0
-33 -65 0
64 -65 0
-30 31 33 -64 65 0
30 -67 0
-31 -67 0
33 -67 0
-66 -67 0
-30 31 -33 66 67 0
30 -69 0
-31 -69 0
33 -69 0
66 -69 0
-68 -69 0
-30 31 -33 -66 68 69 0
30 -70 0
-31 -70 0
33 -70 0
66 -70 0
68 -70 0
-30 31 -33 -66 -68 70 0
-65 71 0
-67 71 0
-69 71 0
-70 71 0
65 67 69 70 -71 0
71 -73 0
72 -73 0
-71 -72 73 0
71 -74 0
-72 -74 0
-71 72 74 0
-32 75 0
-73 75 0
-74 75 0
32 73 74 -75 0
-76 77 0
76 77 0
24 -79 0
28 -79 0
75 -79 0
77 -79 0
78 -79 0
-24 -28 -75 -77 -78 79 0
-80 81 0
80 81 0
24 -82 0
28 -82 0
75 -82 0
77 -82 0
-78 -82 0
81 -82 0
-24 -28 -75 -77 78 -81 82 0
-79 83 0
-82 83 0
79 82 -83 0
83 -85 0
84 -85 0
-83 -84 85 0
83 -86 0
-84 -86 0
-83 84 86 0
24 87 0
-85 87 0
-86 87 0
-24 85 86 -87 0
8 -88 0
19 -88 0
21 -88 0
23 -88 0
87 -88 0
-8 -19 -21 -23 -87 88 0
-8 -89 0
19 -89 0
21 -89 0
23 -89 0
8 -19 -21 -23 89 0
-88 90 0
-89 90 0
88 89 -90 0
91 92 0
-91 92 0
7 -93 0
90 -93 0
92 -93 0
-7 -90 -92 93 0
-7 -94 0
90 -94 0
7 -90 94 0
-93 95 0
-94 95 0
93 94 -95 0
96 97 0
-96 97 0
6 -98 0
95 -98 0
97 -98 0
-6 -95 -97 98 0
-6 -99 0
95 -99 0
6 -95 99 0
-98 100 0
-99 100 0
98 99 -100 0
101 102 0
-101 102 0
5 -103 0
100 -103 0
102 -103 0
-5 -100 -102 103 0
-5 -104 0
100 -104 0
5 -100 104 0
-103 105 0
-104 105 0
103 104 -105 0
4 -106 0
105 -106 0
-4 -105 106 0
108 -109 0
100 -109 0
102 -109 0
-108 -100 -102 109 0
-108 -110 0
100 -110 0
108 -100 110 0
-109 111 0
-110 111 0
109 110 -111 0
112 113 0
-112 113 0
107 -114 0
111 -114 0
113 -114 0
-107 -111 -113 114 0
116 117 0
-116 117 0
115 -118 0
111 -118 0
117 -118 0
-115 -111 -117 118 0
-115 -119 0
111 -119 0
115 -111 119 0
-118 120 0
-119 120 0
118 119 -120 0
-107 -121 0
120 -121 0
107 -120 121 0
-114 122 0
-121 122 0
114 121 -122 0
-4 -123 0
122 -123 0
4 -122 123 0
-106 124 0
-123 124 0
106 123 -124 0
125 126 0
-125 126 0
3 -127 0
124 -127 0
126 -127 0
-3 -124 -126 127 0
-3 -128 0
124 -128 0
3 -124 128 0
-127 129 0
-128 129 0
127 128 -129 0
2 -130 0
129 -130 0
-2 -129 130 0
132 -133 0
124 -133 0
126 -133 0
-132 -124 -126 133 0
-132 -134 0
124 -134 0
132 -124 134 0
-133 135 0
-134 135 0
133 134 -135 0
136 137 0
-136 137 0
131 -138 0
135 -138 0
137 -138 0
-131 -135 -137 138 0
140 141 0
-140 141 0
139 -142 0
135 -142 0
141 -142 0
-139 -135 -141 142 0
-139 -143 0
135 -143 0
139 -135 143 0
-142 144 0
-143 144 0
142 143 -144 0
-131 -145 0
144 -145 0
131 -144 145 0
-138 146 0
-145 146 0
138 145 -146 0
-2 -147 0
146 -147 0
2 -146 147 0
-130 148 0
-147 148 0
130 147 -148 0
-15 149 0
15 149 0
9 -150 0
149 -150 0
-9 -149 150 0
-150 151 0
9 151 0
150 -9 -151 0
151 -152 0
-24 -152 0
-151 24 152 0
151 -153 0
30 -153 0
31 -153 0
-151 -30 -31 153 0
151 -154 0
30 -154 0
-31 -154 0
33 -154 0
66 -154 0
-68 -154 0
-151 -30 31 -33 -66 68 154 0
151 -155 0
30 -155 0
-31 -155 0
33 -155 0
66 -155 0
68 -155 0
-151 -30 31 -33 -66 -68 155 0
151 -156 0
30 -156 0
-31 -156 0
33 -156 0
-66 -156 0
-151 -30 31 -33 66 156 0
151 -157 0
34 -157 0
-151 -34 157 0
151 -158 0
-34 -158 0
-151 34 158 0
-157 159 0
-158 159 0
157 158 -159 0
-37 160 0
-39 160 0
-42 160 0
-44 160 0
-46 160 0
-48 160 0
-50 160 0
-52 160 0
37 39 42 44 46 48 50 52 -160 0
159 -161 0
160 -161 0
-159 -160 161 0
159 -162 0
35 -162 0
36 -162 0
-38 -162 0
40 -162 0
-41 -162 0
43 -162 0
-49 -162 0
-51 -162 0
62 -162 0
-159 -35 -36 38 -40 41 -43 49 51 -62 162 0
-56 163 0
-57 163 0
56 57 -163 0
159 -164 0
163 -164 0
-159 -163 164 0
-161 165 0
-162 165 0
-164 165 0
161 162 164 -165 0
165 -166 0
30 -166 0
-31 -166 0
-33 -166 0
64 -166 0
-165 -30 31 33 -64 166 0
-154 167 0
-155 167 0
-156 167 0
-166 167 0
154 155 156 166 -167 0
167 -168 0
71 -168 0
72 -168 0
-167 -71 -72 168 0
167 -169 0
71 -169 0
-72 -169 0
-167 -71 72 169 0
-153 170 0
-168 170 0
-169 170 0
153 168 169 -170 0
170 -171 0
24 -171 0
28 -171 0
75 -171 0
77 -171 0
78 -171 0
-170 -24 -28 -75 -77 -78 171 0
170 -172 0
24 -172 0
28 -172 0
75 -172 0
77 -172 0
-78 -172 0
81 -172 0
-170 -24 -28 -75 -77 78 -81 172 0
-171 173 0
-172 173 0
171 172 -173 0
-85 174 0
-86 174 0
85 86 -174 0
173 -175 0
174 -175 0
-173 -174 175 0
-152 176 0
-175 176 0
152 175 -176 0
8 -177 0
176 -177 0
-8 -176 177 0
-8 -178 0
151 -178 0
8 -151 178 0
-177 179 0
-178 179 0
177 178 -179 0
179 -180 0
-91 -180 0
-179 91 180 0
179 -181 0
91 -181 0
-179 -91 181 0
-180 182 0
-181 182 0
180 181 -182 0
7 -183 0
182 -183 0
-7 -182 183 0
-7 -184 0
179 -184 0
7 -179 184 0
-183 185 0
-184 185 0
183 184 -185 0
185 -186 0
-96 -186 0
-185 96 186 0
185 -187 0
96 -187 0
-185 -96 187 0
-186 188 0
-187 188 0
186 187 -188 0
6 -189 0
188 -189 0
-6 -188 189 0
-6 -190 0
185 -190 0
6 -185 190 0
-189 191 0
-190 191 0
189 190 -191 0
191 -192 0
-101 -192 0
-191 101 192 0
191 -193 0
101 -193 0
-191 -101 193 0
-192 194 0
-193 194 0
192 193 -194 0
5 -195 0
194 -195 0
-5 -194 195 0
-5 -196 0
191 -196 0
5 -191 196 0
-195 197 0
-196 197 0
195 196 -197 0
4 -198 0
197 -198 0
-4 -197 198 0
108 -199 0
194 -199 0
-108 -194 199 0
-108 -200 0
191 -200 0
108 -191 200 0
-199 201 0
-200 201 0
199 200 -201 0
201 -202 0
-112 -202 0
-201 112 202 0
201 -203 0
112 -203 0
-201 -112 203 0
-202 204 0
-203 204 0
202 203 -204 0
107 -205 0
204 -205 0
-107 -204 205 0
201 -206 0
-116 -206 0
-201 116 206 0
201 -207 0
116 -207 0
-201 -116 207 0
-206 208 0
-207 208 0
206 207 -208 0
115 -209 0
208 -209 0
-115 -208 209 0
-115 -210 0
201 -210 0
115 -201 210 0
-209 211 0
-210 211 0
209 210 -211 0
-107 -212 0
211 -212 0
107 -211 212 0
-205 213 0
-212 213 0
205 212 -213 0
-4 -214 0
213 -214 0
4 -213 214 0
-198 215 0
-214 215 0
198 214 -215 0
215 -216 0
-125 -216 0
-215 125 216 0
215 -217 0
125 -217 0
-215 -125 217 0
-216 218 0
-217 218 0
216 217 -218 0
3 -219 0
218 -219 0
-3 -218 219 0
-3 -220 0
215 -220 0
3 -215 220 0
-219 221 0
-220 221 0
219 220 -221 0
2 -222 0
221 -222 0
-2 -221 222 0
132 -223 0
218 -223 0
-132 -218 223 0
-132 -224 0
215 -224 0
132 -215 224 0
-223 225 0
-224 225 0
223 224 -225 0
225 -226 0
-136 -226 0
-225 136 226 0
225 -227 0
136 -227 0
-225 -136 227 0
-226 228 0
-227 228 0
226 227 -228 0
131 -229 0
228 -229 0
-131 -228 229 0
225 -230 0
-140 -230 0
-225 140 230 0
225 -231 0
140 -231 0
-225 -140 231 0
-230 232 0
-231 232 0
230 231 -232 0
139 -233 0
232 -233 0
-139 -232 233 0
-139 -234 0
225 -234 0
139 -225 234 0
-233 235 0
-234 235 0
233 234 -235 0
-131 -236 0
235 -236 0
131 -235 236 0
-229 237 0
-236 237 0
229 236 -237 0
-2 -238 0
237 -238 0
2 -237 238 0
-222 239 0
-238 239 0
222 238 -239 0
-15 240 0
15 240 0
9 -241 0
240 -241 0
-9 -240 241 0
-241 242 0
9 242 0
241 -9 -242 0
242 -243 0
-24 -243 0
-242 24 243 0
242 -244 0
30 -244 0
31 -244 0
-242 -30 -31 244 0
242 -245 0
30 -245 0
-31 -245 0
33 -245 0
66 -245 0
-68 -245 0
-242 -30 31 -33 -66 68 245 0
242 -246 0
30 -246 0
-31 -246 0
33 -246 0
66 -246 0
68 -246 0
-242 -30 31 -33 -66 -68 246 0
242 -247 0
30 -247 0
-31 -247 0
33 -247 0
-66 -247 0
-242 -30 31 -33 66 247 0
242 -248 0
34 -248 0
-242 -34 248 0
242 -249 0
-34 -249 0
-242 34 249 0
-248 250 0
-249 250 0
248 249 -250 0
-37 251 0
-39 251 0
-42 251 0
-44 251 0
-46 251 0
-48 251 0
-50 251 0
-52 251 0
37 39 42 44 46 48 50 52 -251 0
250 -252 0
251 -252 0
-250 -251 252 0
250 -253 0
35 -253 0
36 -253 0
-38 -253 0
40 -253 0
-41 -253 0
43 -253 0
-49 -253 0
-51 -253 0
62 -253 0
-250 -35 -36 38 -40 41 -43 49 51 -62 253 0
250 -254 0
163 -254 0
-250 -163 254 0
-252 255 0
-253 255 0
-254 255 0
252 253 254 -255 0
255 -256 0
30 -256 0
-31 -256 0
-33 -256 0
64 -256 0
-255 -30 31 33 -64 256 0
-245 257 0
-246 257 0
-247 257 0
-256 257 0
245 246 247 256 -257 0
257 -258 0
71 -258 0
72 -258 0
-257 -71 -72 258 0
257 -259 0
71 -259 0
-72 -259 0
-257 -71 72 259 0
-244 260 0
-258 260 0
-259 260 0
244 258 259 -260 0
260 -261 0
24 -261 0
28 -261 0
75 -261 0
77 -261 0
78 -261 0
-260 -24 -28 -75 -77 -78 261 0
260 -262 0
24 -262 0
28 -262 0
75 -262 0
77 -262 0
-78 -262 0
81 -262 0
-260 -24 -28 -75 -77 78 -81 262 0
-261 263 0
-262 263 0
261 262 -263 0
263 -264 0
174 -264 0
-263 -174 264 0
-243 265 0
-264 265 0
243 264 -265 0
8 -266 0
265 -266 0
-8 -265 266 0
-8 -267 0
242 -267 0
8 -242 267 0
-266 268 0
-267 268 0
266 267 -268 0
268 -269 0
-91 -269 0
-268 91 269 0
268 -270 0
91 -270 0
-268 -91 270 0
-269 271 0
-270 271 0
269 270 -271 0
7 -272 0
271 -272 0
-7 -271 272 0
-7 -273 0
268 -273 0
7 -268 273 0
-272 274 0
-273 274 0
272 273 -274 0
274 -275 0
-96 -275 0
-274 96 275 0
274 -276 0
96 -276 0
-274 -96 276 0
-275 277 0
-276 277 0
275 276 -277 0
6 -278 0
277 -278 0
-6 -277 278 0
-6 -279 0
274 -279 0
6 -274 279 0
-278 280 0
-279 280 0
278 279 -280 0
280 -281 0
-101 -281 0
-280 101 281 0
280 -282 0
101 -282 0
-280 -101 282 0
-281 283 0
-282 283 0
281 282 -283 0
5 -284 0
283 -284 0
-5 -283 284 0
-5 -285 0
280 -285 0
5 -280 285 0
-284 286 0
-285 286 0
284 285 -286 0
4 -287 0
286 -287 0
-4 -286 287 0
108 -288 0
283 -288 0
-108 -283 288 0
-108 -289 0
280 -289 0
108 -280 289 0
-288 290 0
-289 290 0
288 289 -290 0
290 -291 0
-112 -291 0
-290 112 291 0
290 -292 0
112 -292 0
-290 -112 292 0
-291 293 0
-292 293 0
291 292 -293 0
107 -294 0
293 -294 0
-107 -293 294 0
290 -295 0
-116 -295 0
-290 116 295 0
290 -296 0
116 -296 0
-290 -116 296 0
-295 297 0
-296 297 0
295 296 -297 0
115 -298 0
297 -298 0
-115 -297 298 0
-115 -299 0
290 -299 0
115 -290 299 0
-298 300 0
-299 300 0
298 299 -300 0
-107 -301 0
300 -301 0
107 -300 301 0
-294 302 0
-301 302 0
294 301 -302 0
-4 -303 0
302 -303 0
4 -302 303 0
-287 304 0
-303 304 0
287 303 -304 0
304 -305 0
-125 -305 0
-304 125 305 0
304 -306 0
125 -306 0
-304 -125 306 0
-305 307 0
-306 307 0
305 306 -307 0
3 -308 0
307 -308 0
-3 -307 308 0
-3 -309 0
304 -309 0
3 -304 309 0
-308 310 0
-309 310 0
308 309 -310 0
2 -311 0
310 -311 0
-2 -310 311 0
132 -312 0
307 -312 0
-132 -307 312 0
-132 -313 0
304 -313 0
132 -304 313 0
-312 314 0
-313 314 0
312 313 -314 0
314 -315 0
-136 -315 0
-314 136 315 0
314 -316 0
136 -316 0
-314 -136 316 0
-315 317 0
-316 317 0
315 316 -317 0
131 -318 0
317 -318 0
-131 -317 318 0
314 -319 0
-140 -319 0
-314 140 319 0
314 -320 0
140 -320 0
-314 -140 320 0
-319 321 0
-320 321 0
319 320 -321 0
139 -322 0
321 -322 0
-139 -321 322 0
-139 -323 0
314 -323 0
139 -314 323 0
-322 324 0
-323 324 0
322 323 -324 0
-131 -325 0
324 -325 0
131 -324 325 0
-318 326 0
-325 326 0
318 325 -326 0
-2 -327 0
326 -327 0
2 -326 327 0
-311 328 0
-327 328 0
311 327 -328 0
337 -339 0
338 -339 0
-337 -338 339 0
337 -340 0
-338 -340 0
-337 338 340 0
337 341 0
-339 341 0
-340 341 0
-337 339 340 -341 0
-342 343 0
342 343 0
336 -344 0
341 -344 0
343 -344 0
-336 -341 -343 344 0
-336 -345 0
341 -345 0
336 -341 345 0
-344 346 0
-345 346 0
344 345 -346 0
-347 348 0
347 348 0
-349 350 0
349 350 0
352 -354 0
-353 -354 0
-352 353 354 0
352 355 0
-354 355 0
-352 354 -355 0
-356 357 0
356 357 0
357 -359 0
358 -359 0
-357 -358 359 0
-361 362 0
361 362 0
362 -364 0
-363 -364 0
-362 363 364 0
362 -366 0
363 -366 0
365 -366 0
-362 -363 -365 366 0
362 -369 0
363 -369 0
-365 -369 0
367 -369 0
368 -369 0
-362 -363 365 -367 -368 369 0
362 -371 0
363 -371 0
-365 -371 0
367 -371 0
-368 -371 0
-370 -371 0
-362 -363 365 -367 368 370 371 0
362 -373 0
363 -373 0
-365 -373 0
-367 -373 0
-372 -373 0
-362 -363 365 367 372 373 0
362 -375 0
363 -375 0
-365 -375 0
-367 -375 0
372 -375 0
374 -375 0
-362 -363 365 367 -372 -374 375 0
362 -377 0
363 -377 0
-365 -377 0
367 -377 0
-368 -377 0
370 -377 0
376 -377 0
-362 -363 365 -367 368 -370 -376 377 0
362 -379 0
363 -379 0
-365 -379 0
367 -379 0
-368 -379 0
370 -379 0
-376 -379 0
378 -379 0
-362 -363 365 -367 368 -370 376 -378 379 0
-380 381 0
380 381 0
362 -383 0
363 -383 0
-365 -383 0
-367 -383 0
372 -383 0
-374 -383 0
381 -383 0
382 -383 0
-362 -363 365 367 -372 374 -381 -382 383 0
362 -384 0
363 -384 0
-365 -384 0
-367 -384 0
372 -384 0
-374 -384 0
381 -384 0
-382 -384 0
-362 -363 365 367 -372 374 -381 382 384 0
385 -387 0
386 -387 0
-385 -386 387 0
385 -388 0
-386 -388 0
-385 386 388 0
385 389 0
-387 389 0
-388 389 0
-385 387 388 -389 0
362 -390 0
363 -390 0
-365 -390 0
367 -390 0
-368 -390 0
370 -390 0
-376 -390 0
-378 -390 0
389 -390 0
-362 -363 365 -367 368 -370 376 378 -389 390 0
-364 391 0
-366 391 0
-369 391 0
-371 391 0
-373 391 0
-375 391 0
-377 391 0
-379 391 0
-383 391 0
-384 391 0
-390 391 0
364 366 369 371 373 375 377 379 383 384 390 -391 0
357 -392 0
-358 -392 0
-360 -392 0
391 -392 0
-357 358 360 -391 392 0
357 -394 0
-358 -394 0
360 -394 0
-393 -394 0
-357 358 -360 393 394 0
357 -396 0
-358 -396 0
360 -396 0
393 -396 0
-395 -396 0
-357 358 -360 -393 395 396 0
357 -397 0
-358 -397 0
360 -397 0
393 -397 0
395 -397 0
-357 358 -360 -393 -395 397 0
-392 398 0
-394 398 0
-396 398 0
-397 398 0
392 394 396 397 -398 0
398 -400 0
399 -400 0
-398 -399 400 0
398 -401 0
-399 -401 0
-398 399 401 0
-359 402 0
-400 402 0
-401 402 0
359 400 401 -402 0
-403 404 0
403 404 0
351 -406 0
355 -406 0
402 -406 0
404 -406 0
405 -406 0
-351 -355 -402 -404 -405 406 0
-407 408 0
407 408 0
351 -409 0
355 -409 0
402 -409 0
404 -409 0
-405 -409 0
408 -409 0
-351 -355 -402 -404 405 -408 409 0
-406 410 0
-409 410 0
406 409 -410 0
410 -412 0
411 -412 0
-410 -411 412 0
410 -413 0
-411 -413 0
-410 411 413 0
351 414 0
-412 414 0
-413 414 0
-351 412 413 -414 0
335 -415 0
346 -415 0
348 -415 0
350 -415 0
414 -415 0
-335 -346 -348 -350 -414 415 0
-335 -416 0
346 -416 0
348 -416 0
350 -416 0
335 -346 -348 -350 416 0
-415 417 0
-416 417 0
415 416 -417 0
418 419 0
-418 419 0
334 -420 0
417 -420 0
419 -420 0
-334 -417 -419 420 0
-334 -421 0
417 -421 0
334 -417 421 0
-420 422 0
-421 422 0
420 421 -422 0
423 424 0
-423 424 0
333 -425 0
422 -425 0
424 -425 0
-333 -422 -424 425 0
-333 -426 0
422 -426 0
333 -422 426 0
-425 427 0
-426 427 0
425 426 -427 0
428 429 0
-428 429 0
332 -430 0
427 -430 0
429 -430 0
-332 -427 -429 430 0
-332 -431 0
427 -431 0
332 -427 431 0
-430 432 0
-431 432 0
430 431 -432 0
331 -433 0
432 -433 0
-331 -432 433 0
435 -436 0
427 -436 0
429 -436 0
-435 -427 -429 436 0
-435 -437 0
427 -437 0
435 -427 437 0
-436 438 0
-437 438 0
436 437 -438 0
439 440 0
-439 440 0
434 -441 0
438 -441 0
440 -441 0
-434 -438 -440 441 0
443 444 0
-443 444 0
442 -445 0
438 -445 0
444 -445 0
-442 -438 -444 445 0
-442 -446 0
438 -446 0
442 -438 446 0
-445 447 0
-446 447 0
445 446 -447 0
-434 -448 0
447 -448 0
434 -447 448 0
-441 449 0
-448 449 0
441 448 -449 0
-331 -450 0
449 -450 0
331 -449 450 0
-433 451 0
-450 451 0
433 450 -451 0
452 453 0
-452 453 0
330 -454 0
451 -454 0
453 -454 0
-330 -451 -453 454 0
-330 -455 0
451 -455 0
330 -451 455 0
-454 456 0
-455 456 0
454 455 -456 0
329 -457 0
456 -457 0
-329 -456 457 0
459 -460 0
451 -460 0
453 -460 0
-459 -451 -453 460 0
-459 -461 0
451 -461 0
459 -451 461 0
-460 462 0
-461 462 0
460 461 -462 0
463 464 0
-463 464 0
458 -465 0
462 -465 0
464 -465 0
-458 -462 -464 465 0
467 468 0
-467 468 0
466 -469 0
462 -469 0
468 -469 0
-466 -462 -468 469 0
-466 -470 0
462 -470 0
466 -462 470 0
-469 471 0
-470 471 0
469 470 -471 0
-458 -472 0
471 -472 0
458 -471 472 0
-465 473 0
-472 473 0
465 472 -473 0
-329 -474 0
473 -474 0
329 -473 474 0
-457 475 0
-474 475 0
457 474 -475 0
-342 476 0
342 476 0
336 -477 0
476 -477 0
-336 -476 477 0
-477 478 0
336 478 0
477 -336 -478 0
478 -479 0
-351 -479 0
-478 351 479 0
478 -480 0
357 -480 0
358 -480 0
-478 -357 -358 480 0
478 -481 0
357 -481 0
-358 -481 0
360 -481 0
393 -481 0
-395 -481 0
-478 -357 358 -360 -393 395 481 0
478 -482 0
357 -482 0
-358 -482 0
360 -482 0
393 -482 0
395 -482 0
-478 -357 358 -360 -393 -395 482 0
478 -483 0
357 -483 0
-358 -483 0
360 -483 0
-393 -483 0
-478 -357 358 -360 393 483 0
478 -484 0
361 -484 0
-478 -361 484 0
478 -485 0
-361 -485 0
-478 361 485 0
-484 486 0
-485 486 0
484 485 -486 0
-364 487 0
-366 487 0
-369 487 0
-371 487 0
-373 487 0
-375 487 0
-377 487 0
-379 487 0
364 366 369 371 373 375 377 379 -487 0
486 -488 0
487 -488 0
-486 -487 488 0
486 -489 0
362 -489 0
363 -489 0
-365 -489 0
367 -489 0
-368 -489 0
370 -489 0
-376 -489 0
-378 -489 0
389 -489 0
-486 -362 -363 365 -367 368 -370 376 378 -389 489 0
-383 490 0
-384 490 0
383 384 -490 0
486 -491 0
490 -491 0
-486 -490 491 0
-488 492 0
-489 492 0
-491 492 0
488 489 491 -492 0
492 -493 0
357 -493 0
-358 -493 0
-360 -493 0
391 -493 0
-492 -357 358 360 -391 493 0
-481 494 0
-482 494 0
-483 494 0
-493 494 0
481 482 483 493 -494 0
494 -495 0
398 -495 0
399 -495 0
-494 -398 -399 495 0
494 -496 0
398 -496 0
-399 -496 0
-494 -398 399 496 0
-480 497 0
-495 497 0
-496 497 0
480 495 496 -497 0
497 -498 0
351 -498 0
355 -498 0
402 -498 0
404 -498 0
405 -498 0
-497 -351 -355 -402 -404 -405 498 0
497 -499 0
351 -499 0
355 -499 0
402 -499 0
404 -499 0
-405 -499 0
408 -499 0
-497 -351 -355 -402 -404 405 -408 499 0
-498 500 0
-499 500 0
498 499 -500 0
-412 501 0
-413 501 0
412 413 -501 0
500 -502 0
501 -502 0
-500 -501 502 0
-479 503 0
-502 503 0
479 502 -503 0
335 -504 0
503 -504 0
-335 -503 504 0
-335 -505 0
478 -505 0
335 -478 505 0
-504 506 0
-505 506 0
504 505 -506 0
506 -507 0
-418 -507 0
-506 418 507 0
506 -508 0
418 -508 0
-506 -418 508 0
-507 509 0
-508 509 0
507 508 -509 0
334 -510 0
509 -510 0
-334 -509 510 0
-334 -511 0
506 -511 0
334 -506 511 0
-510 512 0
-511 512 0
510 511 -512 0
512 -513 0
-423 -513 0
-512 423 513 0
512 -514 0
423 -514 0
-512 -423 514 0
-513 515 0
-514 515 0
513 514 -515 0
333 -516 0
515 -516 0
-333 -515 516 0
-333 -517 0
512 -517 0
333 -512 517 0
-516 518 0
-517 518 0
516 517 -518 0
518 -519 0
-428 -519 0
-518 428 519 0
518 -520 0
428 -520 0
-518 -428 520 0
-519 521 0
-520 521 0
519 520 -521 0
332 -522 0
521 -522 0
-332 -521 522 0
-332 -523 0
518 -523 0
332 -518 523 0
-522 524 0
-523 524 0
522 523 -524 0
331 -525 0
524 -525 0
-331 -524 525 0
435 -526 0
521 -526 0
-435 -521 526 0
-435 -527 0
518 -527 0
435 -518 527 0
-526 528 0
-527 528 0
526 527 -528 0
528 -529 0
-439 -529 0
-528 439 529 0
528 -530 0
439 -530 0
-528 -439 530 0
-529 531 0
-530 531 0
529 530 -531 0
434 -532 0
531 -532 0
-434 -531 532 0
528 -533 0
-443 -533 0
-528 443 533 0
528 -534 0
443 -534 0
-528 -443 534 0
-533 535 0
-534 535 0
533 534 -535 0
442 -536 0
535 -536 0
-442 -535 536 0
-442 -537 0
528 -537 0
442 -528 537 0
-536 538 0
-537 538 0
536 537 -538 0
-434 -539 0
538 -539 0
434 -538 539 0
-532 540 0
-539 540 0
532 539 -540 0
-331 -541 0
540 -541 0
331 -540 541 0
-525 542 0
-541 542 0
525 541 -542 0
542 -543 0
-452 -543 0
-542 452 543 0
542 -544 0
452 -544 0
-542 -452 544 0
-543 545 0
-544 545 0
543 544 -545 0
330 -546 0
545 -546 0
-330 -545 546 0
-330 -547 0
542 -547 0
330 -542 547 0
-546 548 0
-547 548 0
546 547 -548 0
329 -549 0
548 -549 0
-329 -548 549 0
459 -550 0
545 -550 0
-459 -545 550 0
-459 -551 0
542 -551 0
459 -542 551 0
-550 552 0
-551 552 0
550 551 -552 0
552 -553 0
-463 -553 0
-552 463 553 0
552 -554 0
463 -554 0
-552 -463 554 0
-553 555 0
-554 555 0
553 554 -555 0
458 -556 0
555 -556 0
-458 -555 556 0
552 -557 0
-467 -557 0
-552 467 557 0
552 -558 0
467 -558 0
-552 -467 558 0
-557 559 0
-558 559 0
557 558 -559 0
466 -560 0
559 -560 0
-466 -559 560 0
-466 -561 0
552 -561 0
466 -552 561 0
-560 562 0
-561 562 0
560 561 -562 0
-458 -563 0
562 -563 0
458 -562 563 0
-556 564 0
-563 564 0
556 563 -564 0
-329 -565 0
564 -565 0
329 -564 565 0
-549 566 0
-565 566 0
549 565 -566 0
-342 567 0
342 567 0
336 -568 0
567 -568 0
-336 -567 568 0
-568 569 0
336 569 0
568 -336 -569 0
569 -570 0
-351 -570 0
-569 351 570 0
569 -571 0
357 -571 0
358 -571 0
-569 -357 -358 571 0
569 -572 0
357 -572 0
-358 -572 0
360 -572 0
393 -572 0
-395 -572 0
-569 -357 358 -360 -393 395 572 0
569 -573 0
357 -573 0
-358 -573 0
360 -573 0
393 -573 0
395 -573 0
-569 -357 358 -360 -393 -395 573 0
569 -574 0
357 -574 0
-358 -574 0
360 -574 0
-393 -574 0
-569 -357 358 -360 393 574 0
569 -575 0
361 -575 0
-569 -361 575 0
569 -576 0
-361 -576 0
-569 361 576 0
-575 577 0
-576 577 0
575 576 -577 0
-364 578 0
-366 578 0
-369 578 0
-371 578 0
-373 578 0
-375 578 0
-377 578 0
-379 578 0
364 366 369 371 373 375 377 379 -578 0
577 -579 0
578 -579 0
-577 -578 579 0
577 -580 0
362 -580 0
363 -580 0
-365 -580 0
367 -580 0
-368 -580 0
370 -580 0
-376 -580 0
-378 -580 0
389 -580 0
-577 -362 -363 365 -367 368 -370 376 378 -389 580 0
577 -581 0
490 -581 0
-577 -490 581 0
-579 582 0
-580 582 0
-581 582 0
579 580 581 -582 0
582 -583 0
357 -583 0
-358 -583 0
-360 -583 0
391 -583 0
-582 -357 358 360 -391 583 0
-572 584 0
-573 584 0
-574 584 0
-583 584 0
572 573 574 583 -584 0
584 -585 0
398 -585 0
399 -585 0
-584 -398 -399 585 0
584 -586 0
398 -586 0
-399 -586 0
-584 -398 399 586 0
-571 587 0
-585 587 0
-586 587 0
571 585 586 -587 0
587 -588 0
351 -588 0
355 -588 0
402 -588 0
404 -588 0
405 -588 0
-587 -351 -355 -402 -404 -405 588 0
587 -589 0
351 -589 0
355 -589 0
402 -589 0
404 -589 0
-405 -589 0
408 -589 0
-587 -351 -355 -402 -404 405 -408 589 0
-588 590 0
-589 590 0
588 589 -590 0
590 -591 0
501 -591 0
-590 -501 591 0
-570 592 0
-591 592 0
570 591 -592 0
335 -593 0
592 -593 0
-335 -592 593 0
-335 -594 0
569 -594 0
335 -569 594 0
-593 595 0
-594 595 0
593 594 -595 0
595 -596 0
-418 -596 0
-595 418 596 0
595 -597 0
418 -597 0
-595 -418 597 0
-596 598 0
-597 598 0
596 597 -598 0
334 -599 0
598 -599 0
-334 -598 599 0
-334 -600 0
595 -600 0
334 -595 600 0
-599 601 0
-600 601 0
599 600 -601 0
601 -602 0
-423 -602 0
-601 423 602 0
601 -603 0
423 -603 0
-601 -423 603 0
-602 604 0
-603 604 0
602 603 -604 0
333 -605 0
604 -605 0
-333 -604 605 0
-333 -606 0
601 -606 0
333 -601 606 0
-605 607 0
-606 607 0
605 606 -607 0
607 -608 0
-428 -608 0
-607 428 608 0
607 -609 0
428 -609 0
-607 -428 609 0
-608 610 0
-609 610 0
608 609 -610 0
332 -611 0
610 -611 0
-332 -610 611 0
-332 -612 0
607 -612 0
332 -607 612 0
-611 613 0
-612 613 0
611 612 -613 0
331 -614 0
613 -614 0
-331 -613 614 0
435 -615 0
610 -615 0
-435 -610 615 0
-435 -616 0
607 -616 0
435 -607 616 0
-615 617 0
-616 617 0
615 616 -617 0
617 -618 0
-439 -618 0
-617 439 618 0
617 -619 0
439 -619 0
-617 -439 619 0
-618 620 0
-619 620 0
618 619 -620 0
434 -621 0
620 -621 0
-434 -620 621 0
617 -622 0
-443 -622 0
-617 443 622 0
617 -623 0
443 -623 0
-617 -443 623 0
-622 624 0
-623 624 0
622 623 -624 0
442 -625 0
624 -625 0
-442 -624 625 0
-442 -626 0
617 -626 0
442 -617 626 0
-625 627 0
-626 627 0
625 626 -627 0
-434 -628 0
627 -628 0
434 -627 628 0
-621 629 0
-628 629 0
621 628 -629 0
-331 -630 0
629 -630 0
331 -629 630 0
-614 631 0
-630 631 0
614 630 -631 0
631 -632 0
-452 -632 0
-631 452 632 0
631 -633 0
452 -633 0
-631 -452 633 0
-632 634 0
-633 634 0
632 633 -634 0
330 -635 0
634 -635 0
-330 -634 635 0
-330 -636 0
631 -636 0
330 -631 636 0
-635 637 0
-636 637 0
635 636 -637 0
329 -638 0
637 -638 0
-329 -637 638 0
459 -639 0
634 -639 0
-459 -634 639 0
-459 -640 0
631 -640 0
459 -631 640 0
-639 641 0
-640 641 0
639 640 -641 0
641 -642 0
-463 -642 0
-641 463 642 0
641 -643 0
463 -643 0
-641 -463 643 0
-642 644 0
-643 644 0
642 643 -644 0
458 -645 0
644 -645 0
-458 -644 645 0
641 -646 0
-467 -646 0
-641 467 646 0
641 -647 0
467 -647 0
-641 -467 647 0
-646 648 0
-647 648 0
646 647 -648 0
466 -649 0
648 -649 0
-466 -648 649 0
-466 -650 0
641 -650 0
466 -641 650 0
-649 651 0
-650 651 0
649 650 -651 0
-458 -652 0
651 -652 0
458 -651 652 0
-645 653 0
-652 653 0
645 652 -653 0
-329 -654 0
653 -654 0
329 -653 654 0
-638 655 0
-654 655 0
638 654 -655 0
-566 -239 -656 0
566 239 -656 0
-566 239 656 0
566 -239 656 0
-655 -328 -657 0
655 328 -657 0
-655 328 657 0
655 -328 657 0
-656 -658 0
-657 -658 0
475 -658 0
656 657 -475 658 0
-148 658 0
